(set-info :smt-lib-version 2.6)
(set-logic QF_S)
(set-info :source |
Generated by: Shaoke Cui
Generated on: 2025-04-10
Application: Using String Solvers to solve string matching problems
Target solver: Z3, Z3alpha, Z3-noodler
Benchmarks for string matching problem with wildcards, which needs to determine whether two strings containing two wildcards can match.
Use re.allchar and (re.* re.allchar) to represent wildcards.
Determine whether the two strings match by judging whether the result of re.inter is re.none.
|)
(set-info :license "https://creativecommons.org/licenses/by/4.0/")
(set-info :category "crafted")
(set-info :status unknown)
(assert (= re.none (re.inter  (re.++ (str.to_re "kfum") (re.* re.allchar) (str.to_re "maafxqqbnojafsshcoxomnkmuluaacntdatiapsxqugjunsfmowdd") (re.* re.allchar) re.allchar (str.to_re "aowdltjs") re.allchar (str.to_re "u") (re.* re.allchar) (str.to_re "dwq") re.allchar (str.to_re "enosaqarchqg") (re.* re.allchar) (str.to_re "njhhd") (re.* re.allchar) (str.to_re "jf") (re.* re.allchar) (str.to_re "bjshhmxycizrjrnlmr") re.allchar (str.to_re "fvkoa") (re.* re.allchar) (str.to_re "ensogeulpjdaywwgj") (re.* re.allchar) (str.to_re "jzpamrn") (re.* re.allchar) (str.to_re "qxeuoi") re.allchar (str.to_re "ax") (re.* re.allchar) (str.to_re "yeobfyqzw") re.allchar (str.to_re "tuihdzjzh") (re.* re.allchar) (str.to_re "wscmgqboniznljmcaivytrzta") re.allchar (str.to_re "odkdonztkkxblctqfzfbqzbbuyutkxb") (re.* re.allchar) (str.to_re "gjhrmswhmiuxrvmwovbcvftqqcvvztegonvyaiajftwsrakqtiosthpyxdmlc") (re.* re.allchar) (str.to_re "zbiuinrgysvvhsermoxfz") re.allchar (re.* re.allchar) (str.to_re "dfgaxtpfh") (re.* re.allchar) (str.to_re "mpfw") (re.* re.allchar) (str.to_re "hyajm") (re.* re.allchar) (str.to_re "p") re.allchar (str.to_re "mlk") (re.* re.allchar) (str.to_re "oqgs") re.allchar (str.to_re "vn") re.allchar (str.to_re "hlffuxyrfwafdudkmlicqqswjd") re.allchar (str.to_re "zcgjblqvsukjxnfcuyynjkbynsplibgitpdqjabq") re.allchar (str.to_re "ablhcpehkliqfoytbdp") (re.* re.allchar) (str.to_re "bnc") re.allchar (str.to_re "plonwyhdfrldr") (re.* re.allchar) (str.to_re "xlwixkq") (re.* re.allchar) (str.to_re "npzwvrxqsjy") (re.* re.allchar) (str.to_re "ulkam") (re.* re.allchar) (str.to_re "mekjbsatvwesnnypnef") re.allchar (str.to_re "dfx") (re.* re.allchar) (str.to_re "bvvp") (re.* re.allchar) (str.to_re "fgitaplmqndom") (re.* re.allchar) (str.to_re "hrht") (re.* re.allchar) (str.to_re "roqtybaiyujizrapylmkk") (re.* re.allchar) (str.to_re "nvsotkobjathgjvkvgcrxesrvyatrdgykusi") re.allchar (str.to_re "yt") (re.* re.allchar) (str.to_re "coj") (re.* re.allchar) (str.to_re "tunstm") re.allchar (str.to_re "kxcerafjupgozvomsa") (re.* re.allchar) (str.to_re "piyxosihvpddjd") (re.* re.allchar) (str.to_re "rvfhlxhi") re.allchar (str.to_re "ubgvatgjfckvcixzuowc") (re.* re.allchar) (str.to_re "pgdiuukflzoigccwuhcymnaejjmrqrcgryykxbl") (re.* re.allchar) (str.to_re "uawdtzwjot") (re.* re.allchar) (str.to_re "xiytfhcygqqfzxjhnobbkanlhgeqseb") (re.* re.allchar) (str.to_re "rzrmyamitsjhmctixv") re.allchar (str.to_re "rbk") re.allchar (str.to_re "dxzzhsmasemugfnqcc") (re.* re.allchar) (str.to_re "y") (re.* re.allchar) (str.to_re "zxxlcdek") (re.* re.allchar) (str.to_re "nzpvvhqtzvf") (re.* re.allchar) (str.to_re "ghzzvucwqsttlxpiyiywwd") (re.* re.allchar) (re.* re.allchar) (str.to_re "vwsbathjz") re.allchar (str.to_re "mzh") (re.* re.allchar) (str.to_re "idxy") (re.* re.allchar) (str.to_re "maqobuamaiz") (re.* re.allchar) (str.to_re "fjoskayjqrdlyytlphfohmohqcezvrrvm") re.allchar (str.to_re "fsnysmojztkzlwxymnp") (re.* re.allchar) (str.to_re "svntbpbq") (re.* re.allchar) re.allchar (str.to_re "vdbidrdjh") re.allchar (str.to_re "fjyewgtjrnhkixvvshkyu") re.allchar (str.to_re "jhlrzbrn") re.allchar (str.to_re "wrpblyn") re.allchar (str.to_re "h") re.allchar (str.to_re "i") (re.* re.allchar) (str.to_re "kzaeqqdl") (re.* re.allchar) (str.to_re "bzrxbowjzpqw") re.allchar (str.to_re "erlbioxrvzsa") re.allchar (str.to_re "mqig") re.allchar (str.to_re "rjvo") re.allchar (re.* re.allchar) (str.to_re "na") (re.* re.allchar) (str.to_re "cvbuuudg") (re.* re.allchar) (str.to_re "bdwhhgswyukeykuwadokoyrrdlbhgckdqaznazjwzrujwvactjm") re.allchar (str.to_re "prtvqwkyajkaqmy") (re.* re.allchar) (str.to_re "eibsmm") re.allchar (str.to_re "mpka") re.allchar (re.* re.allchar) (str.to_re "mnhbwpiiq") re.allchar (re.* re.allchar) (str.to_re "cjedqufeghavsrmpqqytew") re.allchar re.allchar (str.to_re "tnpbqdlyrkliealuwvdequm") re.allchar (str.to_re "tenzkrhfu") re.allchar (str.to_re "tq") (re.* re.allchar) (str.to_re "wovf") re.allchar (str.to_re "tckqjrpts") re.allchar (str.to_re "smdibfluxmumhrwfxldeelhnqdiymhwwuds") (re.* re.allchar) (str.to_re "m") re.allchar (str.to_re "yxiphpd") re.allchar (str.to_re "jb") re.allchar (str.to_re "rgu") re.allchar (str.to_re "usfpwrbc") (re.* re.allchar) (str.to_re "chaixbmbv") (re.* re.allchar) (str.to_re "urahjlbqkx") re.allchar (str.to_re "bnelnlcnmctukn") (re.* re.allchar) re.allchar (str.to_re "htjgcaxjwwnpxtfgwkwlvrrtjzlomzyzvpskmzojga") (re.* re.allchar) (str.to_re "fgaa") (re.* re.allchar) (str.to_re "za") re.allchar (str.to_re "gqjbvbpuzbpqpoclrdzubuvowfuyuvntgwpbvkqjyswcucukduwech") (re.* re.allchar) (str.to_re "ky") (re.* re.allchar) (str.to_re "vb") (re.* re.allchar) (str.to_re "zqgqctpzipeqgvveasxpoqmipgjteyxzcdvihcwfrwtu") (re.* re.allchar) (str.to_re "xbtmzdoimjub") (re.* re.allchar) (str.to_re "tvdcpthvee") re.allchar (str.to_re "geaibhaifmxfqnuqrv") (re.* re.allchar) (str.to_re "p") (re.* re.allchar) (str.to_re "ccdmlgpwoyz") (re.* re.allchar) (str.to_re "mpodxiiqhqxxsbaokrubfbktxg") re.allchar (str.to_re "krpcehcjfbjkoazvjhf") (re.* re.allchar) (str.to_re "yuzcq") (re.* re.allchar) (str.to_re "snltqubpvfetszkj") (re.* re.allchar) (str.to_re "mbjzttvaxyvnvhp") re.allchar (str.to_re "qvgjwlcgo") re.allchar (str.to_re "s") re.allchar (str.to_re "igpttyoklpvrewprc") (re.* re.allchar) (str.to_re "svdoihunws") (re.* re.allchar) (str.to_re "ixlwlvuspceb") (re.* re.allchar) (str.to_re "sgsyhihuqca") re.allchar (str.to_re "fvmed") re.allchar (re.* re.allchar) (str.to_re "afuqkjmtahptzfvz") re.allchar (str.to_re "ucdr") (re.* re.allchar) (str.to_re "gjkrnrw") (re.* re.allchar) (str.to_re "fvddakmbjakbxyjuylqkhptpbzufibht") re.allchar re.allchar (str.to_re "eybcvzowimghqrxgnurt") (re.* re.allchar) (str.to_re "msplwupajrahlwryirvkxjcdojtirehn") (re.* re.allchar) (str.to_re "qzaghujsxmmcuxefeq") re.allchar (str.to_re "fedi") (re.* re.allchar) (str.to_re "mtrfrbd") re.allchar (str.to_re "pokxtxqqdcbknrpikqgqyrqfzcueiaxzlt") (re.* re.allchar) (str.to_re "yrabjpnxwarsaanynhdvoayetwsu") re.allchar (str.to_re "hu") re.allchar (str.to_re "jlxknxhtzpwtpxu") re.allchar (str.to_re "zjzcjbilykibav") (re.* re.allchar) (str.to_re "qsidqfkdmyinx") re.allchar (str.to_re "rrjydeinyjikiltnttfpaflrxdexmmxsscnivuwev") re.allchar (str.to_re "pztxtdzuqbtjpaauwyrgkxoynqwcrihmejmrfpladrhzwuautuf") re.allchar (str.to_re "injlmmxdujk") (re.* re.allchar) (re.* re.allchar) (str.to_re "xlvjsjkjwgtaejbcuzxvbwkyssaczsnulnwntude") (re.* re.allchar) (str.to_re "lmxynffdekxuavzmcpkhqnxddsxj") re.allchar (str.to_re "si") re.allchar (str.to_re "cpzo") re.allchar (str.to_re "dzud") re.allchar (str.to_re "wlcbmrcsmgtaiyjqmyousdtkixasyywx") (re.* re.allchar) (str.to_re "ypirewyrhr") (re.* re.allchar) (str.to_re "nav") re.allchar (str.to_re "flhebxhj") re.allchar (str.to_re "ftmfdw") (re.* re.allchar) (str.to_re "fgkyvnpx") re.allchar (str.to_re "uqoob") re.allchar (str.to_re "nxnqbrqdu") re.allchar (str.to_re "cmtmaproatm") (re.* re.allchar) (str.to_re "iqfvsiwcywk") (re.* re.allchar) (str.to_re "vdfjfvtqycqou") (re.* re.allchar) (str.to_re "byhd") (re.* re.allchar) (str.to_re "wxgmw") re.allchar (str.to_re "mdjqwahamqbyn") re.allchar (str.to_re "ptgcgoaklbavlltpmototpyotyvr") re.allchar (str.to_re "jnydyw") (re.* re.allchar) (str.to_re "orhlouojj") (re.* re.allchar) (str.to_re "feqgfwyweos") re.allchar (str.to_re "aefzxmeogvaxngv") (re.* re.allchar) (re.* re.allchar) (str.to_re "sshuaqlic") (re.* re.allchar) (str.to_re "ok") (re.* re.allchar) (str.to_re "ccqynodbkbmhqdlokjmfzvmmbpqmjcifcqjqaxppjyawupdroro") re.allchar (str.to_re "ucxqkkwjtcrmysgigpapotrkdxbyng") (re.* re.allchar) (str.to_re "xniblofgnrxhorkxbhsjdpuiiu") (re.* re.allchar) (str.to_re "rwlug") (re.* re.allchar) (str.to_re "qiebrlj") (re.* re.allchar) (str.to_re "zxdjmeihsschxinrbvidzhwhrtxcz") re.allchar (str.to_re "vwzrcgkx") (re.* re.allchar) (str.to_re "zbk") (re.* re.allchar) (str.to_re "nepdqcqtq") (re.* re.allchar) (str.to_re "xgjvaulpfrqeiqflyitwlvltxttinfmorxpmfvbprmyuhcreevj") (re.* re.allchar) (str.to_re "lwpkimmgeupgcljhcogrueqvfc") (re.* re.allchar) (str.to_re "hxxbxdsxfaglcblxtdxxolqkkkumwi") re.allchar (str.to_re "pyw") (re.* re.allchar) (str.to_re "dewbvhjtdor") re.allchar (str.to_re "uxaqynqgjgdbtdnh") (re.* re.allchar) (str.to_re "wklzyu") (re.* re.allchar) (str.to_re "hzjorxumhjaavxolrgvwp") re.allchar (str.to_re "sxigfqbtld") re.allchar (str.to_re "zj") (re.* re.allchar) (str.to_re "bw") (re.* re.allchar) (str.to_re "ktyu") re.allchar (str.to_re "joycqbzagxsqzfhrzzvpopxo") (re.* re.allchar) (str.to_re "df") re.allchar (str.to_re "rqoncnbtxy") re.allchar (str.to_re "bqtldkvy") re.allchar (str.to_re "oqoffdsegaagsducspi") (re.* re.allchar) (str.to_re "oztppedpjoogfbpothbfyovmtu") (re.* re.allchar) (str.to_re "wkaznx") (re.* re.allchar) (str.to_re "lmymkxzucfrw") (re.* re.allchar) (str.to_re "cfezpno") re.allchar (str.to_re "igl") re.allchar (str.to_re "bvyzpywsecsufwtcz") (re.* re.allchar) (str.to_re "p") re.allchar (str.to_re "wbdnza") re.allchar (str.to_re "caylftdjp") (re.* re.allchar) (str.to_re "wjolbnpm") re.allchar re.allchar (str.to_re "tkr") re.allchar (str.to_re "zsevf") (re.* re.allchar) (str.to_re "vqvvjab") (re.* re.allchar) (str.to_re "rielawgqfqlxtk") (re.* re.allchar) (str.to_re "s") re.allchar (str.to_re "lozxtadksaaldytoykfnpbmnect") (re.* re.allchar) (str.to_re "aegdheozcxr") re.allchar (str.to_re "dyvfx") (re.* re.allchar) (str.to_re "nfgbnprkpfvlwymcyheav") (re.* re.allchar) (str.to_re "qwadaxdf") re.allchar (str.to_re "tio") (re.* re.allchar) (str.to_re "chzkifetwzgrvkfaiwikqtrctoxwkaevhfgapprvnrw") (re.* re.allchar) (str.to_re "s") (re.* re.allchar) (str.to_re "gvaqqrmixskssaio") re.allchar (str.to_re "ucaolxwqlyqxrpppwlltpfpwzkkidjgizeirgodknwryougqsj") re.allchar (str.to_re "sqfzietttndqvkkignaetlfrxfzvrxbbsthr") (re.* re.allchar) (str.to_re "oxjfejvnhbovyyuhheaeqfti") re.allchar (str.to_re "hx") re.allchar (str.to_re "rjwlprhmiksgbqw") (re.* re.allchar) (str.to_re "oxorc") (re.* re.allchar) (str.to_re "jc") (re.* re.allchar) (re.* re.allchar) (str.to_re "ath") (re.* re.allchar) (re.* re.allchar) (str.to_re "tpxjxgktolulwfopco") re.allchar (str.to_re "lhucrxlmnlejtbytdbsqoolxilmlucirqzqkuf") (re.* re.allchar) (str.to_re "arufeixfzmitizzavaxcuez") (re.* re.allchar) (str.to_re "vwgxxvobrgxxorh") re.allchar (str.to_re "k") re.allchar (str.to_re "cxuiegvfcgknkp") re.allchar (str.to_re "baeywlelkay") re.allchar (str.to_re "zscdcgufynrqwupqjamvpapr") re.allchar (str.to_re "qmlyvobuzxkxwavhaukpkmcxypfmuzsdgsbptvs") (re.* re.allchar) (str.to_re "hw") re.allchar re.allchar (str.to_re "q") (re.* re.allchar) (str.to_re "gdsmlsgahwxqu") re.allchar (str.to_re "nrqftaksxlwjcsjpklakddnaeoceyhoopwypbpqgreltopzles") re.allchar (str.to_re "sdrbwfhxvng") (re.* re.allchar) (str.to_re "h") re.allchar (str.to_re "iccoome") (re.* re.allchar) (str.to_re "pwyqfephriccybvzjgzdhx") (re.* re.allchar) (re.* re.allchar) (str.to_re "lbexpsicwxxfzbam") re.allchar (str.to_re "idlfmhk") (re.* re.allchar) (str.to_re "m") re.allchar (str.to_re "vmuuzwntzxmljkgqqoryw") re.allchar (str.to_re "adceeidjnuxrb") (re.* re.allchar) (str.to_re "a") (re.* re.allchar) (str.to_re "asa") re.allchar (str.to_re "hd") re.allchar (str.to_re "jgaffwgsmwgqnkznrwm") (re.* re.allchar) (str.to_re "ckrqegqov") (re.* re.allchar) (str.to_re "swlatbtqnctylwcbyiurlyzcdgdxbfghmcsidtqlb") (re.* re.allchar) re.allchar (str.to_re "mkladtabzvsajzfudsesgynbcfewiouzarz") (re.* re.allchar) (str.to_re "upsqyaeyurppiuadjjhsqtpocnya") re.allchar (str.to_re "lgpsrpavhedfjizzn") re.allchar (str.to_re "thpgxjtgwucjwvlmyfneyqaum") (re.* re.allchar) (str.to_re "xb") re.allchar (str.to_re "hbmkznngizupqpgfhnr") re.allchar (str.to_re "icganzxfsplnubixld") (re.* re.allchar) (str.to_re "gw") re.allchar (str.to_re "qsakkjkzcxcrnrmxt") re.allchar (str.to_re "jxcyknjhbb") (re.* re.allchar) (str.to_re "csmuweceyvzlgfvrxoajlza") (re.* re.allchar) (str.to_re "a") (re.* re.allchar) (str.to_re "uxdkehopve") (re.* re.allchar) (str.to_re "xhdw") (re.* re.allchar) (str.to_re "h") re.allchar (str.to_re "czocsfhigbnvykhavolqaeuiggr") re.allchar (str.to_re "zjfxjav") (re.* re.allchar) (str.to_re "kzuxtrgigmacfafhwkjkuldbbiqdzsnnbqxmfyg") (re.* re.allchar) (str.to_re "krkeaqxv") re.allchar (str.to_re "wgygps") )   (re.++ (str.to_re "t") re.allchar (str.to_re "dmum") (re.* re.allchar) (str.to_re "shcslst") (re.* re.allchar) (str.to_re "cojkatipxdouowyasuzdilslujhstekwvzxv") re.allchar (str.to_re "logvozk") re.allchar (str.to_re "zawzrgplntjmcfuob") re.allchar (str.to_re "ihaiixctkuqtucrtxjfppmvj") re.allchar (str.to_re "lntfonwhjypbaddtklqvxibq") re.allchar (str.to_re "fjujzcdxn") (re.* re.allchar) (str.to_re "phzvjoqznenw") (re.* re.allchar) (str.to_re "xk") (re.* re.allchar) (str.to_re "nzlkpijyl") re.allchar (str.to_re "aycbi") (re.* re.allchar) (str.to_re "x") (re.* re.allchar) (str.to_re "dcwsxx") (re.* re.allchar) (re.* re.allchar) (str.to_re "spuwgee") (re.* re.allchar) (str.to_re "udojxbtnrryaibxqyo") (re.* re.allchar) (str.to_re "rpeebmwzdbtfnjsmlha") (re.* re.allchar) (str.to_re "uaku") re.allchar (str.to_re "eq") re.allchar (str.to_re "sxdylphyq") re.allchar (str.to_re "wzngfb") (re.* re.allchar) (str.to_re "jmerdglxvmajcczrmdvtjjqbcjzjmkpwoyk") re.allchar (str.to_re "lufwdym") re.allchar (str.to_re "fdbiqp") (re.* re.allchar) (str.to_re "tdptummrd") re.allchar (str.to_re "luxzzvogvqsatiymnpvopnaoupwznksniqnpa") re.allchar (str.to_re "iinbo") re.allchar (str.to_re "vueghpsz") (re.* re.allchar) (str.to_re "r") (re.* re.allchar) (str.to_re "ovf") (re.* re.allchar) (str.to_re "vurty") (re.* re.allchar) (str.to_re "deypwfmvlezacyn") re.allchar (str.to_re "blhszmznoabgu") (re.* re.allchar) (str.to_re "ksc") (re.* re.allchar) (str.to_re "vjvdgdvyqmyqjmtwuosysok") (re.* re.allchar) (str.to_re "xkwhskehikjtxhylfcccdxfpe") re.allchar (str.to_re "vjvon") re.allchar (str.to_re "zjqvvb") (re.* re.allchar) (str.to_re "pljgwhhllrmovhvzdcjyrm") (re.* re.allchar) (str.to_re "gfgiuxxewfdsjrgvndxve") (re.* re.allchar) (str.to_re "vc") re.allchar (str.to_re "vnxn") (re.* re.allchar) (str.to_re "qiz") (re.* re.allchar) (str.to_re "mzb") re.allchar (str.to_re "a") re.allchar (str.to_re "lcjqfydbcqnnr") re.allchar (str.to_re "oskzorlgxxdelg") re.allchar (str.to_re "syjaiis") (re.* re.allchar) (str.to_re "eniomhurpsastmbfguulmfcitw") (re.* re.allchar) (str.to_re "vevoozpnyqjlzynwokdvlnsaznmy") re.allchar (str.to_re "pxjhuhhkydnkbobjjaymuppwporzsxn") re.allchar (str.to_re "pu") re.allchar (str.to_re "lwftoymqhjowlvngvrvjtqzf") (re.* re.allchar) (str.to_re "y") re.allchar (re.* re.allchar) (str.to_re "riwpbdlgkbnahlafycqmlevxdvlbbuppeibxjfeebve") re.allchar (str.to_re "zzfrznnnyvlgzzcjjnzxhzixiwgvu") re.allchar (str.to_re "uiqaljmnynww") (re.* re.allchar) (str.to_re "bgvk") (re.* re.allchar) (str.to_re "dqzh") (re.* re.allchar) (str.to_re "najbq") re.allchar (str.to_re "zqwx") re.allchar (str.to_re "ygakyxznybdajywedzivzmyagemqjwuipoivgz") re.allchar (str.to_re "qruryw") (re.* re.allchar) re.allchar re.allchar (str.to_re "ixcefxmowubjgyjss") re.allchar (str.to_re "tffftejgdw") re.allchar re.allchar (str.to_re "owzwohgkwhgshtstqowllhkn") re.allchar (str.to_re "m") (re.* re.allchar) (str.to_re "efoebqazqud") re.allchar (str.to_re "uanx") re.allchar (str.to_re "ghlfyrmsoxdfegyl") re.allchar (str.to_re "cu") re.allchar (str.to_re "itzexmxgum") re.allchar (str.to_re "hzjuayuwzpwtxedeklohhtcffucrpkifabeqecuv") (re.* re.allchar) (str.to_re "ugjkacrbkadrrtjewoo") re.allchar (str.to_re "uv") re.allchar (str.to_re "sorbvm") (re.* re.allchar) (str.to_re "oo") re.allchar (str.to_re "vppkenwvdn") re.allchar (str.to_re "ltzaxl") re.allchar (str.to_re "lkipizhspiidgz") re.allchar (str.to_re "lgpx") re.allchar (str.to_re "cjsdidbzangrbkacui") (re.* re.allchar) (str.to_re "k") re.allchar (str.to_re "tlifkclatezjawfqhwsgckjqtvduwibouviz") re.allchar (str.to_re "tfuaxgzwlyunxrpusvel") (re.* re.allchar) (str.to_re "xtgwkfibk") (re.* re.allchar) (str.to_re "phgah") (re.* re.allchar) (str.to_re "ipsunl") re.allchar (str.to_re "njzevreluqa") (re.* re.allchar) (str.to_re "wimiuwdtuhjjbx") (re.* re.allchar) (str.to_re "buuo") (re.* re.allchar) (str.to_re "fddnfnjmo") re.allchar (str.to_re "mxwishoknet") re.allchar (str.to_re "ugghf") (re.* re.allchar) (str.to_re "zbnizuygl") (re.* re.allchar) (str.to_re "hejqzl") (re.* re.allchar) (str.to_re "qkouvs") re.allchar (str.to_re "asvymak") (re.* re.allchar) (str.to_re "zhhud") re.allchar (str.to_re "bksmgqrmphblojdsizcajcmkcceawqpoelbrbgchstnorvcfvr") (re.* re.allchar) (str.to_re "witjkewy") re.allchar (str.to_re "falo") (re.* re.allchar) (str.to_re "vnc") (re.* re.allchar) (str.to_re "plcogmcdgxqttsaakbq") (re.* re.allchar) (str.to_re "vz") (re.* re.allchar) (str.to_re "ohcbyh") re.allchar (re.* re.allchar) (str.to_re "zmunqqbbbacpjqekf") re.allchar (str.to_re "tc") (re.* re.allchar) (str.to_re "cl") re.allchar (str.to_re "wahrkxnpztfjxfuwkbkyvboppulkzs") (re.* re.allchar) (str.to_re "cnadyxiiqyjbkxmwbugvhs") (re.* re.allchar) (str.to_re "jhz") re.allchar (str.to_re "ufugdqcepbil") re.allchar (str.to_re "gxiigybl") re.allchar (str.to_re "ye") re.allchar (str.to_re "pcwhlxexmyujn") (re.* re.allchar) (str.to_re "pojokggkwpjlgfc") (re.* re.allchar) (str.to_re "jafqgecnwdmropg") re.allchar (str.to_re "wdmnbxwxhopphe") re.allchar re.allchar (str.to_re "wmddgvixkw") re.allchar (str.to_re "dpohardyyjfdueqmmadiromikt") (re.* re.allchar) (str.to_re "cudxfuqvmpvwqvghlyysofpinjcvfg") (re.* re.allchar) (str.to_re "qdgcjzfvcrhjaj") re.allchar re.allchar (str.to_re "yoabdgshbfcpzqjueawvyyvqcxyllg") re.allchar (re.* re.allchar) re.allchar (str.to_re "xtbzcegqbcuyuzsmjiytvtzgmiqotj") (re.* re.allchar) re.allchar (str.to_re "ibbkfvcfsydngbg") (re.* re.allchar) (str.to_re "hhqszisls") (re.* re.allchar) (str.to_re "bwvpx") (re.* re.allchar) (str.to_re "obnaukugjtxmocggkalhqfrsxvealeyszgteym") (re.* re.allchar) (str.to_re "tsosragzmre") re.allchar (str.to_re "o") (re.* re.allchar) (re.* re.allchar) (str.to_re "gwrerbf") (re.* re.allchar) (str.to_re "gvwztwltviodol") (re.* re.allchar) (str.to_re "nhjcyuvnwluioknwta") (re.* re.allchar) (str.to_re "hxxkelqqmxcaseswnvbzjaetsv") re.allchar (str.to_re "ydbwlcnteggoagskovlt") (re.* re.allchar) (str.to_re "adbzk") (re.* re.allchar) (str.to_re "uwjuvfprgsidhr") (re.* re.allchar) (str.to_re "mr") (re.* re.allchar) (str.to_re "rgekrpwpir") re.allchar (str.to_re "ilsimuguv") re.allchar (str.to_re "pgbkvrygxly") re.allchar (str.to_re "aemcmqyriybhzw") (re.* re.allchar) (str.to_re "bal") re.allchar (str.to_re "p") (re.* re.allchar) (str.to_re "uobe") (re.* re.allchar) (str.to_re "ii") (re.* re.allchar) (str.to_re "yiyctpidvab") re.allchar (str.to_re "yfjrqgapo") re.allchar (str.to_re "gafsrgoxprryfwnfdeztsconhcbrvsxyrooppblwcdvwcewubirpkzdezcjtu") re.allchar re.allchar (str.to_re "ofjvlcmjcfsyshzeyjfsiyiyvio") re.allchar (str.to_re "vrpiutuhqyimkvaweskedexukdkkjcez") re.allchar (str.to_re "pfbsgbb") re.allchar (str.to_re "lgvdzzzv") (re.* re.allchar) (str.to_re "cdkbxwnxflcscxamswynqdsrqfdbxwgnirfjfjcufz") re.allchar (str.to_re "gey") (re.* re.allchar) (str.to_re "vdqgrrbdcqagqpazzwgw") re.allchar (str.to_re "qcwymcxahrqxql") (re.* re.allchar) (str.to_re "tvh") (re.* re.allchar) (str.to_re "yumge") (re.* re.allchar) (str.to_re "uqroydgngici") (re.* re.allchar) (str.to_re "xrrcusovrqrkjyqrfnwwmete") re.allchar (str.to_re "i") re.allchar (str.to_re "mvkqv") (re.* re.allchar) (str.to_re "yffxz") (re.* re.allchar) (str.to_re "usvzfstfsphjsdys") (re.* re.allchar) (str.to_re "fajagezmyyfdjnozcfq") (re.* re.allchar) (str.to_re "sxazdfee") re.allchar (str.to_re "i") re.allchar (str.to_re "prvacjavrryjem") (re.* re.allchar) (str.to_re "bopgglc") (re.* re.allchar) (str.to_re "uaixhhsmhlnrtjidefeb") (re.* re.allchar) (str.to_re "tznnvwqztukrayycewklebsonkyybpornxo") (re.* re.allchar) (str.to_re "vsathikpz") (re.* re.allchar) (str.to_re "vkdaefmzduhfspcr") re.allchar (str.to_re "ljpqhuxmbztipbgwewvikxlesxcqrxhqzsseijrqtzvqrjpmes") (re.* re.allchar) (re.* re.allchar) (str.to_re "ucxpdkfexvzkzve") re.allchar (str.to_re "w") (re.* re.allchar) (str.to_re "fnxjfdifgfawxg") (re.* re.allchar) (str.to_re "nby") re.allchar (str.to_re "upvepbkafxklshwalcpnjwnxszlqm") (re.* re.allchar) (str.to_re "dachymjxvghkfrgdrkmosaxy") (re.* re.allchar) (str.to_re "onpgxtzkoojdkzrmytboclstygvix") (re.* re.allchar) (str.to_re "muhbmxwjmxdtnfoxwvfzusbvzljqkrdknbs") (re.* re.allchar) (str.to_re "ws") (re.* re.allchar) (str.to_re "quuwav") (re.* re.allchar) (str.to_re "ugkkudzmcguwq") (re.* re.allchar) (str.to_re "jkfmopc") re.allchar (str.to_re "ecrjbofqu") re.allchar (str.to_re "wpe") (re.* re.allchar) (str.to_re "gdcukgfli") re.allchar (str.to_re "rmmychgor") (re.* re.allchar) (str.to_re "ppgkt") (re.* re.allchar) (str.to_re "hdgky") (re.* re.allchar) (str.to_re "ad") (re.* re.allchar) (str.to_re "vjzuwapfz") (re.* re.allchar) (str.to_re "cs") re.allchar (str.to_re "etytxseylyougnsmbecibspdrz") re.allchar (str.to_re "cq") re.allchar (str.to_re "a") re.allchar (str.to_re "fngaowxbpksxbeqauiktbylnilcam") (re.* re.allchar) (str.to_re "xq") re.allchar (str.to_re "buhstmqrqalnnikkpkypoizpvlsqrwnisxfaeli") (re.* re.allchar) (str.to_re "wczxrg") (re.* re.allchar) (str.to_re "mdytbgibyypujprzsxzdki") re.allchar (str.to_re "vdcggqdevxspnwmuwdseroplxwjoazfw") re.allchar (str.to_re "hmqjtwmvpbdridfrvric") (re.* re.allchar) (str.to_re "aquegptgtqzalmpjajd") re.allchar (str.to_re "vkzkephwthozwdvy") (re.* re.allchar) (str.to_re "svqiehhybbeeskwxwxcya") re.allchar (str.to_re "eyqcldhwrmrzpkfoeqlkiaxkp") (re.* re.allchar) (str.to_re "kwhixrrj") re.allchar (str.to_re "colytgdhvhyd") (re.* re.allchar) (str.to_re "a") re.allchar (str.to_re "phaqtpggq") (re.* re.allchar) (str.to_re "anlfifosqw") (re.* re.allchar) (str.to_re "lonjklfgn") re.allchar (str.to_re "xkimqnmrjc") re.allchar (str.to_re "xctxzjsqjpnbxxtdtidmikh") re.allchar (str.to_re "omnvrgiuai") re.allchar (str.to_re "auawhl") (re.* re.allchar) (str.to_re "a") (re.* re.allchar) (str.to_re "jdyfggoyhb") re.allchar (str.to_re "fssgb") (re.* re.allchar) (str.to_re "yff") re.allchar (str.to_re "e") re.allchar (str.to_re "eyvkxe") (re.* re.allchar) (str.to_re "ut") (re.* re.allchar) (re.* re.allchar) (str.to_re "pd") (re.* re.allchar) (str.to_re "dggcuuhhkgsl") (re.* re.allchar) (str.to_re "ilkdppbglglikjlbqe") re.allchar re.allchar (str.to_re "gsrlaxfhhdwuilclbyhqdiheljdrzjdjel") re.allchar (str.to_re "tydyvzxfptxdqymutbu") (re.* re.allchar) (str.to_re "p") re.allchar (str.to_re "nyqfnsb") (re.* re.allchar) (str.to_re "uzbtkmmju") re.allchar (str.to_re "uzr") (re.* re.allchar) (str.to_re "wztkbqjxvmgnqaspsojpvcgolfnjdkvknyhwnzacfjoixbyeoxvheovwtkmaejblzhkhpsyydt") re.allchar (str.to_re "lwg") re.allchar (str.to_re "gxn") (re.* re.allchar) (str.to_re "i") (re.* re.allchar) re.allchar (str.to_re "l") re.allchar (str.to_re "voueaz") (re.* re.allchar) (str.to_re "mszitiwunlrvhnnldfw") (re.* re.allchar) (str.to_re "adwzvrtougl") (re.* re.allchar) (str.to_re "bezj") (re.* re.allchar) (str.to_re "idv") (re.* re.allchar) (str.to_re "qlrbka") (re.* re.allchar) (str.to_re "dpkjnsmdygxdamojrgsstwnglaqrt") (re.* re.allchar) (str.to_re "lfltxgfdxcqk") (re.* re.allchar) (str.to_re "fgokazucpzcatzyzbskmoyrqfftlygoidxlkimmuahdnauxxfxjvxdyieuhcnctjvstsm") (re.* re.allchar) (str.to_re "aw") (re.* re.allchar) (str.to_re "nzbmbggeyqsjpifdtmyhoj") re.allchar (str.to_re "cyyinoixihwq") re.allchar (str.to_re "dcgjskbbemdsjpcdqvnakdpiokurbhcljmoylzcmwmwoxaywyzqiwwnbeppl") re.allchar (str.to_re "ethdqn") (re.* re.allchar) re.allchar (str.to_re "q") (re.* re.allchar) (str.to_re "tz") (re.* re.allchar) (str.to_re "zlxjjwmwvuzscnpoxlmnzsfm") re.allchar (str.to_re "uzqkslmw") re.allchar (str.to_re "horjuogrvhygmtyyafnsnforwnygkoujzbfagfhg") (re.* re.allchar) (str.to_re "euikrruuakvqijwklbbxeywk") (re.* re.allchar) (str.to_re "rhqddqw") (re.* re.allchar) (str.to_re "lvu") (re.* re.allchar) (str.to_re "c") re.allchar (str.to_re "pvqhvjr") re.allchar (str.to_re "li") (re.* re.allchar) (str.to_re "pcfofuxqpwifdzyfzwtoijet") re.allchar (str.to_re "zanvoybydjxgfqmbnanhpvjnebtgdmemi") (re.* re.allchar) (str.to_re "kvuy") (re.* re.allchar) (str.to_re "rraifhenosjwxhamvyf") (re.* re.allchar) (str.to_re "bdsmfkgfciwhydbetnwiswavdjww") re.allchar (str.to_re "zimwhvyllkhpypfvq") re.allchar (str.to_re "c") re.allchar (str.to_re "arbyzqkbvnsfb") (re.* re.allchar) (str.to_re "aarqmmcm") re.allchar (str.to_re "dddlkziwcafkiahzglpj") (re.* re.allchar) (str.to_re "pfejmvfedmomrjhjgxztdocjbfskmxp") re.allchar (str.to_re "flaoikidgyr") (re.* re.allchar) (str.to_re "kizlenqvecia") re.allchar (str.to_re "vurtehztrtussjcdutnmvhqe") re.allchar (str.to_re "axjrlhjvk") (re.* re.allchar) (str.to_re "wuzzychrbuxlrnhrhhuhmtnf") re.allchar (str.to_re "ejbmqutbkcdkfbm") re.allchar (str.to_re "rcluxrdsrl") re.allchar re.allchar (str.to_re "uerwwyuysmpdpscgzaamdztqvcmcqqqvcjspxhgqrnhx") re.allchar (str.to_re "wy") (re.* re.allchar) (str.to_re "dhuhomrvumcyghwg") (re.* re.allchar) (str.to_re "f") (re.* re.allchar) (str.to_re "bqpiwwciuthxwbmfnojscdvgzzjnj") re.allchar (str.to_re "tkfsmsfjoumf") re.allchar (str.to_re "fti") re.allchar (str.to_re "ypgouojiviygxgpugrk") (re.* re.allchar) (str.to_re "dhblbyjytiyxrmfuuluvcgmylunwu") re.allchar (str.to_re "e") re.allchar (str.to_re "elglzcoqfmf") (re.* re.allchar) (str.to_re "taizmsqyoedcymuildlpo") (re.* re.allchar) (str.to_re "rfqlesvauekvhrpmaowoutxxwzwilddsiqozazjhg") (re.* re.allchar) (str.to_re "miiug") (re.* re.allchar) (str.to_re "wekdwqfmxopvylkcgomvzyqimmkaff") re.allchar (str.to_re "dmqdbqajr") (re.* re.allchar) (str.to_re "gczvbsnebdvxkjlwtvbux") )  )))
(check-sat)
(exit)
